p cnf 23 55
-1 -2 22 0 
-3 22 0 
-4 22 0 
-5 -3 23 0 
-6 22 0 
-7 23 0 
-8 23 0 
-9 -10 22 0 
-11 22 0 
-5 22 0 
-12 -4 23 0 
-13 23 0 
-1 22 0 
-5 23 0 
-12 22 0 
-14 -12 23 0 
-15 23 0 
-5 -3 22 0 
-9 -3 22 0 
-13 -10 23 0 
-16 -10 23 0 
-9 22 0 
-6 -12 23 0 
-1 -12 22 0 
-12 23 0 
-14 22 0 
-8 -10 22 0 
-17 -10 22 0 
-3 23 0 
-8 22 0 
-6 -10 23 0 
-7 22 0 
-2 23 0 
-10 23 0 
-12 -16 22 0 
-8 -13 23 0 
-16 22 0 
-16 -18 22 0 
-19 22 0 
-12 -7 22 0 
-20 23 0 
-6 -3 23 0 
-16 -8 22 0 
-2 22 0 
-21 22 0 
-4 -3 22 0 
-9 -8 22 0 
-10 22 0 
-21 -10 22 0 
-12 -7 23 0 
-4 -10 23 0 
-4 -10 22 0 
-12 -13 23 0 
-7 -4 23 0 
-6 -8 23 0 
